coords = array2d(1..39, 1..2, [1, 942, 71, 629, 594, 489, 559, 638, 686, 892,
    342, 917, 274, 300, 864, 232, 589, 933, 860, 156, 600, 12, 992,
    893, 632, 608, 515, 111, 708, 878, 261, 818, 374, 914, 661, 358,
    765, 574, 90, 336, 903, 317, 117, 728, 397, 255, 889, 997, 864,
    413, 797, 390, 974, 664, 931, 716, 972, 300, 537, 5, 233, 699,
    784, 16, 986, 967, 351, 733, 924, 709, 714, 533, 373, 12, 252,
    662, 397, 511]);

n = 39;

